NAME : mr50
COMMENT : 50-city problem (DISC)
TYPE : TSP
DIMENSION : 50
EDGE_WEIGHT_TYPE : EUC_2D
NODE_COORD_SECTION
1 50 30
2 23 62
3 26 47
4 40 26
5 38 84
6 100 18
7 41 23
8 78 66
9 77 48
10 32 8
11 35 14
12 36 12
13 15 48
14 98 55
15 91 96
16 56 59
17 32 53
18 89 93
19 68 92
20 40 26
21 51 69
22 53 97
23 93 23
24 58 72
25 67 80
26 6 94
27 33 86
28 6 43
29 18 1
30 93 4
31 94 2
32 72 59
33 74 39
34 47 12
35 94 87
36 41 83
37 69 74
38 65 85
39 60 41
40 23 75
41 69 56
42 88 62
43 80 30
44 44 61
45 92 43
46 79 54
47 73 49
48 13 50
49 92 92
50 39 27
EOF
